language ESSENCE' 1.0
letting AssignmentMatrix be [[0, 0, 0, 0, 0, 0, 0, 1, 0, 0, 0, 0, 0, 1, 1, 1, 1, 1, 1, 0, 1, 1, 1, 1, 1, 1], 
[0, 0, 0, 0, 0, 0, 0, 0, 0, 0, 0, 0, 0, 1, 1, 1, 1, 1, 1, 0, 1, 1, 1, 1, 1, 1], 
[0, 0, 0, 0, 0, 0, 0, 0, 0, 0, 0, 0, 0, 0, 0, 0, 0, 0, 0, 0, 0, 0, 0, 0, 0, 0], 
[0, 0, 0, 0, 0, 0, 0, 0, 1, 1, 1, 1, 0, 0, 0, 0, 0, 0, 0, 1, 0, 0, 0, 0, 0, 0], 
[0, 0, 0, 0, 0, 0, 0, 1, 0, 0, 0, 0, 1, 0, 0, 0, 0, 0, 0, 0, 0, 0, 0, 0, 0, 0]]
letting OccupancyVector be [0, 0, 0, 0, 0, 0, 1, 1, 1, 1, 1, 1, 1, 1, 1, 1, 1, 1, 1, 1, 1, 1, 1, 1, 1, 1]
letting Price be [0, 0, 0, 0, 0, 0, 58, 420, 420, 420, 420, 420, 423, 423, 467, 535, 535, 535, 6820, 6820, 7502, 7502, 7502, 7502, 7502, 7502]
letting VMType be [469, 407, 500, 403, 369, 476, 489, 278, 278, 278, 278, 278, 339, 339, 333, 406, 406, 406, 49, 49, 31, 31, 31, 31, 31, 31]
